\* antennalocation *\
Minimize
obj_func: 4451 x_(0,_0) + 8126 x_(0,_1) + 5760 x_(0,_2) + 6112 x_(0,_3)
 + 9330 x_(1,_0) + 1639 x_(1,_1) + 1784 x_(1,_2) + 1182 x_(1,_3)
 + 8494 x_(2,_0) + 8003 x_(2,_1) + 8830 x_(2,_2) + 9808 x_(2,_3)
 + 8192 x_(3,_0) + 5153 x_(3,_1) + 8025 x_(3,_2) + 2064 x_(3,_3)
Subject To
10_0_0: q_(0,_0) - 40 x_(0,_0) <= 0
10_0_1: q_(0,_1) - 40 x_(0,_1) <= 0
10_0_2: q_(0,_2) - 40 x_(0,_2) <= 0
10_0_3: q_(0,_3) - 40 x_(0,_3) <= 0
10_1_0: q_(1,_0) - 40 x_(1,_0) <= 0
10_1_1: q_(1,_1) - 40 x_(1,_1) <= 0
10_1_2: q_(1,_2) - 40 x_(1,_2) <= 0
10_1_3: q_(1,_3) - 40 x_(1,_3) <= 0
10_2_0: q_(2,_0) - 40 x_(2,_0) <= 0
10_2_1: q_(2,_1) - 40 x_(2,_1) <= 0
10_2_2: q_(2,_2) - 40 x_(2,_2) <= 0
10_2_3: q_(2,_3) - 40 x_(2,_3) <= 0
10_3_0: q_(3,_0) - 40 x_(3,_0) <= 0
10_3_1: q_(3,_1) - 40 x_(3,_1) <= 0
10_3_2: q_(3,_2) - 40 x_(3,_2) <= 0
10_3_3: q_(3,_3) - 40 x_(3,_3) <= 0
2_0_0: z_(0,_0,_0) + z_(0,_0,_1) + z_(0,_0,_2) + z_(0,_0,_3) + z_(0,_0,_4) = 1
2_0_1: z_(0,_1,_0) + z_(0,_1,_1) + z_(0,_1,_2) + z_(0,_1,_3) + z_(0,_1,_4) = 1
2_0_2: z_(0,_2,_0) + z_(0,_2,_1) + z_(0,_2,_2) + z_(0,_2,_3) + z_(0,_2,_4) = 1
2_1_0: z_(1,_0,_0) + z_(1,_0,_1) + z_(1,_0,_2) + z_(1,_0,_3) + z_(1,_0,_4) = 1
2_1_1: z_(1,_1,_0) + z_(1,_1,_1) + z_(1,_1,_2) + z_(1,_1,_3) + z_(1,_1,_4) = 1
2_1_2: z_(1,_2,_0) + z_(1,_2,_1) + z_(1,_2,_2) + z_(1,_2,_3) + z_(1,_2,_4) = 1
2_2_0: z_(2,_0,_0) + z_(2,_0,_1) + z_(2,_0,_2) + z_(2,_0,_3) + z_(2,_0,_4) = 1
2_2_1: z_(2,_1,_0) + z_(2,_1,_1) + z_(2,_1,_2) + z_(2,_1,_3) + z_(2,_1,_4) = 1
2_2_2: z_(2,_2,_0) + z_(2,_2,_1) + z_(2,_2,_2) + z_(2,_2,_3) + z_(2,_2,_4) = 1
3_0_0: - x_(0,_0) - x_(0,_1) - x_(1,_0) - x_(1,_1) - 4 z_(0,_0,_0)
 - 3 z_(0,_0,_1) - 2 z_(0,_0,_2) - z_(0,_0,_3) = -4
3_0_1: - x_(0,_1) - x_(0,_2) - x_(1,_1) - x_(1,_2) - 4 z_(0,_1,_0)
 - 3 z_(0,_1,_1) - 2 z_(0,_1,_2) - z_(0,_1,_3) = -4
3_0_2: - x_(0,_2) - x_(0,_3) - x_(1,_2) - x_(1,_3) - 4 z_(0,_2,_0)
 - 3 z_(0,_2,_1) - 2 z_(0,_2,_2) - z_(0,_2,_3) = -4
3_1_0: - x_(1,_0) - x_(1,_1) - x_(2,_0) - x_(2,_1) - 4 z_(1,_0,_0)
 - 3 z_(1,_0,_1) - 2 z_(1,_0,_2) - z_(1,_0,_3) = -4
3_1_1: - x_(1,_1) - x_(1,_2) - x_(2,_1) - x_(2,_2) - 4 z_(1,_1,_0)
 - 3 z_(1,_1,_1) - 2 z_(1,_1,_2) - z_(1,_1,_3) = -4
3_1_2: - x_(1,_2) - x_(1,_3) - x_(2,_2) - x_(2,_3) - 4 z_(1,_2,_0)
 - 3 z_(1,_2,_1) - 2 z_(1,_2,_2) - z_(1,_2,_3) = -4
3_2_0: - x_(2,_0) - x_(2,_1) - x_(3,_0) - x_(3,_1) - 4 z_(2,_0,_0)
 - 3 z_(2,_0,_1) - 2 z_(2,_0,_2) - z_(2,_0,_3) = -4
3_2_1: - x_(2,_1) - x_(2,_2) - x_(3,_1) - x_(3,_2) - 4 z_(2,_1,_0)
 - 3 z_(2,_1,_1) - 2 z_(2,_1,_2) - z_(2,_1,_3) = -4
3_2_2: - x_(2,_2) - x_(2,_3) - x_(3,_2) - x_(3,_3) - 4 z_(2,_2,_0)
 - 3 z_(2,_2,_1) - 2 z_(2,_2,_2) - z_(2,_2,_3) = -4
4_0_0_0: - 14 x_(0,_0) + 4000 z_(0,_0,_0) <= 4000
4_0_0_1: q_SE_(0,_0) - 14 x_(0,_0) + 4000 z_(0,_0,_1) <= 4000
4_0_0_2: 2 q_SE_(0,_0) - 14 x_(0,_0) + 4000 z_(0,_0,_2) <= 4000
4_0_0_3: 3 q_SE_(0,_0) - 14 x_(0,_0) + 4000 z_(0,_0,_3) <= 4000
4_0_0_4: 4 q_SE_(0,_0) - 14 x_(0,_0) + 4000 z_(0,_0,_4) <= 4000
4_0_1_0: - 18 x_(0,_1) + 4000 z_(0,_1,_0) <= 4000
4_0_1_1: q_SE_(0,_1) - 18 x_(0,_1) + 4000 z_(0,_1,_1) <= 4000
4_0_1_2: 2 q_SE_(0,_1) - 18 x_(0,_1) + 4000 z_(0,_1,_2) <= 4000
4_0_1_3: 3 q_SE_(0,_1) - 18 x_(0,_1) + 4000 z_(0,_1,_3) <= 4000
4_0_1_4: 4 q_SE_(0,_1) - 18 x_(0,_1) + 4000 z_(0,_1,_4) <= 4000
4_0_2_0: - 15 x_(0,_2) + 4000 z_(0,_2,_0) <= 4000
4_0_2_1: q_SE_(0,_2) - 15 x_(0,_2) + 4000 z_(0,_2,_1) <= 4000
4_0_2_2: 2 q_SE_(0,_2) - 15 x_(0,_2) + 4000 z_(0,_2,_2) <= 4000
4_0_2_3: 3 q_SE_(0,_2) - 15 x_(0,_2) + 4000 z_(0,_2,_3) <= 4000
4_0_2_4: 4 q_SE_(0,_2) - 15 x_(0,_2) + 4000 z_(0,_2,_4) <= 4000
4_1_0_0: - 14 x_(1,_0) + 4000 z_(1,_0,_0) <= 4000
4_1_0_1: q_SE_(1,_0) - 14 x_(1,_0) + 4000 z_(1,_0,_1) <= 4000
4_1_0_2: 2 q_SE_(1,_0) - 14 x_(1,_0) + 4000 z_(1,_0,_2) <= 4000
4_1_0_3: 3 q_SE_(1,_0) - 14 x_(1,_0) + 4000 z_(1,_0,_3) <= 4000
4_1_0_4: 4 q_SE_(1,_0) - 14 x_(1,_0) + 4000 z_(1,_0,_4) <= 4000
4_1_1_0: - 11 x_(1,_1) + 4000 z_(1,_1,_0) <= 4000
4_1_1_1: q_SE_(1,_1) - 11 x_(1,_1) + 4000 z_(1,_1,_1) <= 4000
4_1_1_2: 2 q_SE_(1,_1) - 11 x_(1,_1) + 4000 z_(1,_1,_2) <= 4000
4_1_1_3: 3 q_SE_(1,_1) - 11 x_(1,_1) + 4000 z_(1,_1,_3) <= 4000
4_1_1_4: 4 q_SE_(1,_1) - 11 x_(1,_1) + 4000 z_(1,_1,_4) <= 4000
4_1_2_0: - 16 x_(1,_2) + 4000 z_(1,_2,_0) <= 4000
4_1_2_1: q_SE_(1,_2) - 16 x_(1,_2) + 4000 z_(1,_2,_1) <= 4000
4_1_2_2: 2 q_SE_(1,_2) - 16 x_(1,_2) + 4000 z_(1,_2,_2) <= 4000
4_1_2_3: 3 q_SE_(1,_2) - 16 x_(1,_2) + 4000 z_(1,_2,_3) <= 4000
4_1_2_4: 4 q_SE_(1,_2) - 16 x_(1,_2) + 4000 z_(1,_2,_4) <= 4000
4_2_0_0: - 11 x_(2,_0) + 4000 z_(2,_0,_0) <= 4000
4_2_0_1: q_SE_(2,_0) - 11 x_(2,_0) + 4000 z_(2,_0,_1) <= 4000
4_2_0_2: 2 q_SE_(2,_0) - 11 x_(2,_0) + 4000 z_(2,_0,_2) <= 4000
4_2_0_3: 3 q_SE_(2,_0) - 11 x_(2,_0) + 4000 z_(2,_0,_3) <= 4000
4_2_0_4: 4 q_SE_(2,_0) - 11 x_(2,_0) + 4000 z_(2,_0,_4) <= 4000
4_2_1_0: - 22 x_(2,_1) + 4000 z_(2,_1,_0) <= 4000
4_2_1_1: q_SE_(2,_1) - 22 x_(2,_1) + 4000 z_(2,_1,_1) <= 4000
4_2_1_2: 2 q_SE_(2,_1) - 22 x_(2,_1) + 4000 z_(2,_1,_2) <= 4000
4_2_1_3: 3 q_SE_(2,_1) - 22 x_(2,_1) + 4000 z_(2,_1,_3) <= 4000
4_2_1_4: 4 q_SE_(2,_1) - 22 x_(2,_1) + 4000 z_(2,_1,_4) <= 4000
4_2_2_0: - 24 x_(2,_2) + 4000 z_(2,_2,_0) <= 4000
4_2_2_1: q_SE_(2,_2) - 24 x_(2,_2) + 4000 z_(2,_2,_1) <= 4000
4_2_2_2: 2 q_SE_(2,_2) - 24 x_(2,_2) + 4000 z_(2,_2,_2) <= 4000
4_2_2_3: 3 q_SE_(2,_2) - 24 x_(2,_2) + 4000 z_(2,_2,_3) <= 4000
4_2_2_4: 4 q_SE_(2,_2) - 24 x_(2,_2) + 4000 z_(2,_2,_4) <= 4000
5_0_0_0: - 14 x_(0,_1) + 4000 z_(0,_0,_0) <= 4000
5_0_0_1: q_SW_(0,_1) - 14 x_(0,_1) + 4000 z_(0,_0,_1) <= 4000
5_0_0_2: 2 q_SW_(0,_1) - 14 x_(0,_1) + 4000 z_(0,_0,_2) <= 4000
5_0_0_3: 3 q_SW_(0,_1) - 14 x_(0,_1) + 4000 z_(0,_0,_3) <= 4000
5_0_0_4: 4 q_SW_(0,_1) - 14 x_(0,_1) + 4000 z_(0,_0,_4) <= 4000
5_0_1_0: - 18 x_(0,_2) + 4000 z_(0,_1,_0) <= 4000
5_0_1_1: q_SW_(0,_2) - 18 x_(0,_2) + 4000 z_(0,_1,_1) <= 4000
5_0_1_2: 2 q_SW_(0,_2) - 18 x_(0,_2) + 4000 z_(0,_1,_2) <= 4000
5_0_1_3: 3 q_SW_(0,_2) - 18 x_(0,_2) + 4000 z_(0,_1,_3) <= 4000
5_0_1_4: 4 q_SW_(0,_2) - 18 x_(0,_2) + 4000 z_(0,_1,_4) <= 4000
5_0_2_0: - 15 x_(0,_3) + 4000 z_(0,_2,_0) <= 4000
5_0_2_1: q_SW_(0,_3) - 15 x_(0,_3) + 4000 z_(0,_2,_1) <= 4000
5_0_2_2: 2 q_SW_(0,_3) - 15 x_(0,_3) + 4000 z_(0,_2,_2) <= 4000
5_0_2_3: 3 q_SW_(0,_3) - 15 x_(0,_3) + 4000 z_(0,_2,_3) <= 4000
5_0_2_4: 4 q_SW_(0,_3) - 15 x_(0,_3) + 4000 z_(0,_2,_4) <= 4000
5_1_0_0: - 14 x_(1,_1) + 4000 z_(1,_0,_0) <= 4000
5_1_0_1: q_SW_(1,_1) - 14 x_(1,_1) + 4000 z_(1,_0,_1) <= 4000
5_1_0_2: 2 q_SW_(1,_1) - 14 x_(1,_1) + 4000 z_(1,_0,_2) <= 4000
5_1_0_3: 3 q_SW_(1,_1) - 14 x_(1,_1) + 4000 z_(1,_0,_3) <= 4000
5_1_0_4: 4 q_SW_(1,_1) - 14 x_(1,_1) + 4000 z_(1,_0,_4) <= 4000
5_1_1_0: - 11 x_(1,_2) + 4000 z_(1,_1,_0) <= 4000
5_1_1_1: q_SW_(1,_2) - 11 x_(1,_2) + 4000 z_(1,_1,_1) <= 4000
5_1_1_2: 2 q_SW_(1,_2) - 11 x_(1,_2) + 4000 z_(1,_1,_2) <= 4000
5_1_1_3: 3 q_SW_(1,_2) - 11 x_(1,_2) + 4000 z_(1,_1,_3) <= 4000
5_1_1_4: 4 q_SW_(1,_2) - 11 x_(1,_2) + 4000 z_(1,_1,_4) <= 4000
5_1_2_0: - 16 x_(1,_3) + 4000 z_(1,_2,_0) <= 4000
5_1_2_1: q_SW_(1,_3) - 16 x_(1,_3) + 4000 z_(1,_2,_1) <= 4000
5_1_2_2: 2 q_SW_(1,_3) - 16 x_(1,_3) + 4000 z_(1,_2,_2) <= 4000
5_1_2_3: 3 q_SW_(1,_3) - 16 x_(1,_3) + 4000 z_(1,_2,_3) <= 4000
5_1_2_4: 4 q_SW_(1,_3) - 16 x_(1,_3) + 4000 z_(1,_2,_4) <= 4000
5_2_0_0: - 11 x_(2,_1) + 4000 z_(2,_0,_0) <= 4000
5_2_0_1: q_SW_(2,_1) - 11 x_(2,_1) + 4000 z_(2,_0,_1) <= 4000
5_2_0_2: 2 q_SW_(2,_1) - 11 x_(2,_1) + 4000 z_(2,_0,_2) <= 4000
5_2_0_3: 3 q_SW_(2,_1) - 11 x_(2,_1) + 4000 z_(2,_0,_3) <= 4000
5_2_0_4: 4 q_SW_(2,_1) - 11 x_(2,_1) + 4000 z_(2,_0,_4) <= 4000
5_2_1_0: - 22 x_(2,_2) + 4000 z_(2,_1,_0) <= 4000
5_2_1_1: q_SW_(2,_2) - 22 x_(2,_2) + 4000 z_(2,_1,_1) <= 4000
5_2_1_2: 2 q_SW_(2,_2) - 22 x_(2,_2) + 4000 z_(2,_1,_2) <= 4000
5_2_1_3: 3 q_SW_(2,_2) - 22 x_(2,_2) + 4000 z_(2,_1,_3) <= 4000
5_2_1_4: 4 q_SW_(2,_2) - 22 x_(2,_2) + 4000 z_(2,_1,_4) <= 4000
5_2_2_0: - 24 x_(2,_3) + 4000 z_(2,_2,_0) <= 4000
5_2_2_1: q_SW_(2,_3) - 24 x_(2,_3) + 4000 z_(2,_2,_1) <= 4000
5_2_2_2: 2 q_SW_(2,_3) - 24 x_(2,_3) + 4000 z_(2,_2,_2) <= 4000
5_2_2_3: 3 q_SW_(2,_3) - 24 x_(2,_3) + 4000 z_(2,_2,_3) <= 4000
5_2_2_4: 4 q_SW_(2,_3) - 24 x_(2,_3) + 4000 z_(2,_2,_4) <= 4000
6_0_0_0: - 14 x_(1,_0) + 4000 z_(0,_0,_0) <= 4000
6_0_0_1: q_NE_(1,_0) - 14 x_(1,_0) + 4000 z_(0,_0,_1) <= 4000
6_0_0_2: 2 q_NE_(1,_0) - 14 x_(1,_0) + 4000 z_(0,_0,_2) <= 4000
6_0_0_3: 3 q_NE_(1,_0) - 14 x_(1,_0) + 4000 z_(0,_0,_3) <= 4000
6_0_0_4: 4 q_NE_(1,_0) - 14 x_(1,_0) + 4000 z_(0,_0,_4) <= 4000
6_0_1_0: - 18 x_(1,_1) + 4000 z_(0,_1,_0) <= 4000
6_0_1_1: q_NE_(1,_1) - 18 x_(1,_1) + 4000 z_(0,_1,_1) <= 4000
6_0_1_2: 2 q_NE_(1,_1) - 18 x_(1,_1) + 4000 z_(0,_1,_2) <= 4000
6_0_1_3: 3 q_NE_(1,_1) - 18 x_(1,_1) + 4000 z_(0,_1,_3) <= 4000
6_0_1_4: 4 q_NE_(1,_1) - 18 x_(1,_1) + 4000 z_(0,_1,_4) <= 4000
6_0_2_0: - 15 x_(1,_2) + 4000 z_(0,_2,_0) <= 4000
6_0_2_1: q_NE_(1,_2) - 15 x_(1,_2) + 4000 z_(0,_2,_1) <= 4000
6_0_2_2: 2 q_NE_(1,_2) - 15 x_(1,_2) + 4000 z_(0,_2,_2) <= 4000
6_0_2_3: 3 q_NE_(1,_2) - 15 x_(1,_2) + 4000 z_(0,_2,_3) <= 4000
6_0_2_4: 4 q_NE_(1,_2) - 15 x_(1,_2) + 4000 z_(0,_2,_4) <= 4000
6_1_0_0: - 14 x_(2,_0) + 4000 z_(1,_0,_0) <= 4000
6_1_0_1: q_NE_(2,_0) - 14 x_(2,_0) + 4000 z_(1,_0,_1) <= 4000
6_1_0_2: 2 q_NE_(2,_0) - 14 x_(2,_0) + 4000 z_(1,_0,_2) <= 4000
6_1_0_3: 3 q_NE_(2,_0) - 14 x_(2,_0) + 4000 z_(1,_0,_3) <= 4000
6_1_0_4: 4 q_NE_(2,_0) - 14 x_(2,_0) + 4000 z_(1,_0,_4) <= 4000
6_1_1_0: - 11 x_(2,_1) + 4000 z_(1,_1,_0) <= 4000
6_1_1_1: q_NE_(2,_1) - 11 x_(2,_1) + 4000 z_(1,_1,_1) <= 4000
6_1_1_2: 2 q_NE_(2,_1) - 11 x_(2,_1) + 4000 z_(1,_1,_2) <= 4000
6_1_1_3: 3 q_NE_(2,_1) - 11 x_(2,_1) + 4000 z_(1,_1,_3) <= 4000
6_1_1_4: 4 q_NE_(2,_1) - 11 x_(2,_1) + 4000 z_(1,_1,_4) <= 4000
6_1_2_0: - 16 x_(2,_2) + 4000 z_(1,_2,_0) <= 4000
6_1_2_1: q_NE_(2,_2) - 16 x_(2,_2) + 4000 z_(1,_2,_1) <= 4000
6_1_2_2: 2 q_NE_(2,_2) - 16 x_(2,_2) + 4000 z_(1,_2,_2) <= 4000
6_1_2_3: 3 q_NE_(2,_2) - 16 x_(2,_2) + 4000 z_(1,_2,_3) <= 4000
6_1_2_4: 4 q_NE_(2,_2) - 16 x_(2,_2) + 4000 z_(1,_2,_4) <= 4000
6_2_0_0: - 11 x_(3,_0) + 4000 z_(2,_0,_0) <= 4000
6_2_0_1: q_NE_(3,_0) - 11 x_(3,_0) + 4000 z_(2,_0,_1) <= 4000
6_2_0_2: 2 q_NE_(3,_0) - 11 x_(3,_0) + 4000 z_(2,_0,_2) <= 4000
6_2_0_3: 3 q_NE_(3,_0) - 11 x_(3,_0) + 4000 z_(2,_0,_3) <= 4000
6_2_0_4: 4 q_NE_(3,_0) - 11 x_(3,_0) + 4000 z_(2,_0,_4) <= 4000
6_2_1_0: - 22 x_(3,_1) + 4000 z_(2,_1,_0) <= 4000
6_2_1_1: q_NE_(3,_1) - 22 x_(3,_1) + 4000 z_(2,_1,_1) <= 4000
6_2_1_2: 2 q_NE_(3,_1) - 22 x_(3,_1) + 4000 z_(2,_1,_2) <= 4000
6_2_1_3: 3 q_NE_(3,_1) - 22 x_(3,_1) + 4000 z_(2,_1,_3) <= 4000
6_2_1_4: 4 q_NE_(3,_1) - 22 x_(3,_1) + 4000 z_(2,_1,_4) <= 4000
6_2_2_0: - 24 x_(3,_2) + 4000 z_(2,_2,_0) <= 4000
6_2_2_1: q_NE_(3,_2) - 24 x_(3,_2) + 4000 z_(2,_2,_1) <= 4000
6_2_2_2: 2 q_NE_(3,_2) - 24 x_(3,_2) + 4000 z_(2,_2,_2) <= 4000
6_2_2_3: 3 q_NE_(3,_2) - 24 x_(3,_2) + 4000 z_(2,_2,_3) <= 4000
6_2_2_4: 4 q_NE_(3,_2) - 24 x_(3,_2) + 4000 z_(2,_2,_4) <= 4000
7_0_0_0: - 14 x_(1,_1) + 4000 z_(0,_0,_0) <= 4000
7_0_0_1: q_NW_(1,_1) - 14 x_(1,_1) + 4000 z_(0,_0,_1) <= 4000
7_0_0_2: 2 q_NW_(1,_1) - 14 x_(1,_1) + 4000 z_(0,_0,_2) <= 4000
7_0_0_3: 3 q_NW_(1,_1) - 14 x_(1,_1) + 4000 z_(0,_0,_3) <= 4000
7_0_0_4: 4 q_NW_(1,_1) - 14 x_(1,_1) + 4000 z_(0,_0,_4) <= 4000
7_0_1_0: - 18 x_(1,_2) + 4000 z_(0,_1,_0) <= 4000
7_0_1_1: q_NW_(1,_2) - 18 x_(1,_2) + 4000 z_(0,_1,_1) <= 4000
7_0_1_2: 2 q_NW_(1,_2) - 18 x_(1,_2) + 4000 z_(0,_1,_2) <= 4000
7_0_1_3: 3 q_NW_(1,_2) - 18 x_(1,_2) + 4000 z_(0,_1,_3) <= 4000
7_0_1_4: 4 q_NW_(1,_2) - 18 x_(1,_2) + 4000 z_(0,_1,_4) <= 4000
7_0_2_0: - 15 x_(1,_3) + 4000 z_(0,_2,_0) <= 4000
7_0_2_1: q_NW_(1,_3) - 15 x_(1,_3) + 4000 z_(0,_2,_1) <= 4000
7_0_2_2: 2 q_NW_(1,_3) - 15 x_(1,_3) + 4000 z_(0,_2,_2) <= 4000
7_0_2_3: 3 q_NW_(1,_3) - 15 x_(1,_3) + 4000 z_(0,_2,_3) <= 4000
7_0_2_4: 4 q_NW_(1,_3) - 15 x_(1,_3) + 4000 z_(0,_2,_4) <= 4000
7_1_0_0: - 14 x_(2,_1) + 4000 z_(1,_0,_0) <= 4000
7_1_0_1: q_NW_(2,_1) - 14 x_(2,_1) + 4000 z_(1,_0,_1) <= 4000
7_1_0_2: 2 q_NW_(2,_1) - 14 x_(2,_1) + 4000 z_(1,_0,_2) <= 4000
7_1_0_3: 3 q_NW_(2,_1) - 14 x_(2,_1) + 4000 z_(1,_0,_3) <= 4000
7_1_0_4: 4 q_NW_(2,_1) - 14 x_(2,_1) + 4000 z_(1,_0,_4) <= 4000
7_1_1_0: - 11 x_(2,_2) + 4000 z_(1,_1,_0) <= 4000
7_1_1_1: q_NW_(2,_2) - 11 x_(2,_2) + 4000 z_(1,_1,_1) <= 4000
7_1_1_2: 2 q_NW_(2,_2) - 11 x_(2,_2) + 4000 z_(1,_1,_2) <= 4000
7_1_1_3: 3 q_NW_(2,_2) - 11 x_(2,_2) + 4000 z_(1,_1,_3) <= 4000
7_1_1_4: 4 q_NW_(2,_2) - 11 x_(2,_2) + 4000 z_(1,_1,_4) <= 4000
7_1_2_0: - 16 x_(2,_3) + 4000 z_(1,_2,_0) <= 4000
7_1_2_1: q_NW_(2,_3) - 16 x_(2,_3) + 4000 z_(1,_2,_1) <= 4000
7_1_2_2: 2 q_NW_(2,_3) - 16 x_(2,_3) + 4000 z_(1,_2,_2) <= 4000
7_1_2_3: 3 q_NW_(2,_3) - 16 x_(2,_3) + 4000 z_(1,_2,_3) <= 4000
7_1_2_4: 4 q_NW_(2,_3) - 16 x_(2,_3) + 4000 z_(1,_2,_4) <= 4000
7_2_0_0: - 11 x_(3,_1) + 4000 z_(2,_0,_0) <= 4000
7_2_0_1: q_NW_(3,_1) - 11 x_(3,_1) + 4000 z_(2,_0,_1) <= 4000
7_2_0_2: 2 q_NW_(3,_1) - 11 x_(3,_1) + 4000 z_(2,_0,_2) <= 4000
7_2_0_3: 3 q_NW_(3,_1) - 11 x_(3,_1) + 4000 z_(2,_0,_3) <= 4000
7_2_0_4: 4 q_NW_(3,_1) - 11 x_(3,_1) + 4000 z_(2,_0,_4) <= 4000
7_2_1_0: - 22 x_(3,_2) + 4000 z_(2,_1,_0) <= 4000
7_2_1_1: q_NW_(3,_2) - 22 x_(3,_2) + 4000 z_(2,_1,_1) <= 4000
7_2_1_2: 2 q_NW_(3,_2) - 22 x_(3,_2) + 4000 z_(2,_1,_2) <= 4000
7_2_1_3: 3 q_NW_(3,_2) - 22 x_(3,_2) + 4000 z_(2,_1,_3) <= 4000
7_2_1_4: 4 q_NW_(3,_2) - 22 x_(3,_2) + 4000 z_(2,_1,_4) <= 4000
7_2_2_0: - 24 x_(3,_3) + 4000 z_(2,_2,_0) <= 4000
7_2_2_1: q_NW_(3,_3) - 24 x_(3,_3) + 4000 z_(2,_2,_1) <= 4000
7_2_2_2: 2 q_NW_(3,_3) - 24 x_(3,_3) + 4000 z_(2,_2,_2) <= 4000
7_2_2_3: 3 q_NW_(3,_3) - 24 x_(3,_3) + 4000 z_(2,_2,_3) <= 4000
7_2_2_4: 4 q_NW_(3,_3) - 24 x_(3,_3) + 4000 z_(2,_2,_4) <= 4000
8_0_0: q_NE_(1,_0) + q_NW_(1,_1) + q_SE_(0,_0) + q_SW_(0,_1) = 14
8_0_1: q_NE_(1,_1) + q_NW_(1,_2) + q_SE_(0,_1) + q_SW_(0,_2) = 18
8_0_2: q_NE_(1,_2) + q_NW_(1,_3) + q_SE_(0,_2) + q_SW_(0,_3) = 15
8_1_0: q_NE_(2,_0) + q_NW_(2,_1) + q_SE_(1,_0) + q_SW_(1,_1) = 14
8_1_1: q_NE_(2,_1) + q_NW_(2,_2) + q_SE_(1,_1) + q_SW_(1,_2) = 11
8_1_2: q_NE_(2,_2) + q_NW_(2,_3) + q_SE_(1,_2) + q_SW_(1,_3) = 16
8_2_0: q_NE_(3,_0) + q_NW_(3,_1) + q_SE_(2,_0) + q_SW_(2,_1) = 11
8_2_1: q_NE_(3,_1) + q_NW_(3,_2) + q_SE_(2,_1) + q_SW_(2,_2) = 22
8_2_2: q_NE_(3,_2) + q_NW_(3,_3) + q_SE_(2,_2) + q_SW_(2,_3) = 24
9_0_0: q_(0,_0) - q_NE_(0,_0) - q_NW_(0,_0) - q_SE_(0,_0) - q_SW_(0,_0) = 0
9_0_1: q_(0,_1) - q_NE_(0,_1) - q_NW_(0,_1) - q_SE_(0,_1) - q_SW_(0,_1) = 0
9_0_2: q_(0,_2) - q_NE_(0,_2) - q_NW_(0,_2) - q_SE_(0,_2) - q_SW_(0,_2) = 0
9_0_3: q_(0,_3) - q_NE_(0,_3) - q_NW_(0,_3) - q_SE_(0,_3) - q_SW_(0,_3) = 0
9_1_0: q_(1,_0) - q_NE_(1,_0) - q_NW_(1,_0) - q_SE_(1,_0) - q_SW_(1,_0) = 0
9_1_1: q_(1,_1) - q_NE_(1,_1) - q_NW_(1,_1) - q_SE_(1,_1) - q_SW_(1,_1) = 0
9_1_2: q_(1,_2) - q_NE_(1,_2) - q_NW_(1,_2) - q_SE_(1,_2) - q_SW_(1,_2) = 0
9_1_3: q_(1,_3) - q_NE_(1,_3) - q_NW_(1,_3) - q_SE_(1,_3) - q_SW_(1,_3) = 0
9_2_0: q_(2,_0) - q_NE_(2,_0) - q_NW_(2,_0) - q_SE_(2,_0) - q_SW_(2,_0) = 0
9_2_1: q_(2,_1) - q_NE_(2,_1) - q_NW_(2,_1) - q_SE_(2,_1) - q_SW_(2,_1) = 0
9_2_2: q_(2,_2) - q_NE_(2,_2) - q_NW_(2,_2) - q_SE_(2,_2) - q_SW_(2,_2) = 0
9_2_3: q_(2,_3) - q_NE_(2,_3) - q_NW_(2,_3) - q_SE_(2,_3) - q_SW_(2,_3) = 0
9_3_0: q_(3,_0) - q_NE_(3,_0) - q_NW_(3,_0) - q_SE_(3,_0) - q_SW_(3,_0) = 0
9_3_1: q_(3,_1) - q_NE_(3,_1) - q_NW_(3,_1) - q_SE_(3,_1) - q_SW_(3,_1) = 0
9_3_2: q_(3,_2) - q_NE_(3,_2) - q_NW_(3,_2) - q_SE_(3,_2) - q_SW_(3,_2) = 0
9_3_3: q_(3,_3) - q_NE_(3,_3) - q_NW_(3,_3) - q_SE_(3,_3) - q_SW_(3,_3) = 0
Binaries
x_(0,_0)
x_(0,_1)
x_(0,_2)
x_(0,_3)
x_(1,_0)
x_(1,_1)
x_(1,_2)
x_(1,_3)
x_(2,_0)
x_(2,_1)
x_(2,_2)
x_(2,_3)
x_(3,_0)
x_(3,_1)
x_(3,_2)
x_(3,_3)
z_(0,_0,_0)
z_(0,_0,_1)
z_(0,_0,_2)
z_(0,_0,_3)
z_(0,_0,_4)
z_(0,_1,_0)
z_(0,_1,_1)
z_(0,_1,_2)
z_(0,_1,_3)
z_(0,_1,_4)
z_(0,_2,_0)
z_(0,_2,_1)
z_(0,_2,_2)
z_(0,_2,_3)
z_(0,_2,_4)
z_(1,_0,_0)
z_(1,_0,_1)
z_(1,_0,_2)
z_(1,_0,_3)
z_(1,_0,_4)
z_(1,_1,_0)
z_(1,_1,_1)
z_(1,_1,_2)
z_(1,_1,_3)
z_(1,_1,_4)
z_(1,_2,_0)
z_(1,_2,_1)
z_(1,_2,_2)
z_(1,_2,_3)
z_(1,_2,_4)
z_(2,_0,_0)
z_(2,_0,_1)
z_(2,_0,_2)
z_(2,_0,_3)
z_(2,_0,_4)
z_(2,_1,_0)
z_(2,_1,_1)
z_(2,_1,_2)
z_(2,_1,_3)
z_(2,_1,_4)
z_(2,_2,_0)
z_(2,_2,_1)
z_(2,_2,_2)
z_(2,_2,_3)
z_(2,_2,_4)
End
